Instance0
Objective;Best_Integer;Best_Bound
262.6193;639.6325;262.6193
262.6193;542.0395;262.6193
CPXPARAM_MIP_Cuts_Covers 0
Instance1
Objective;Best_Integer;Best_Bound
integral;262.6193;262.6193
CPXPARAM_MIP_Cuts_Covers 0
Instance2
Objective;Best_Integer;Best_Bound
269.4766;639.6325;269.4766
269.4766;639.6325;269.4766
CPXPARAM_MIP_Cuts_Covers 0
Instance3
Objective;Best_Integer;Best_Bound
314.8220;883.5817;314.8220
cutoff;314.8220;40
CPXPARAM_MIP_Cuts_Covers 0
Instance4
Objective;Best_Integer;Best_Bound
405.5114;634.5912;405.5114
405.5114;557.0696;405.5114
CPXPARAM_MIP_Cuts_Covers 0
Instance5
Objective;Best_Integer;Best_Bound
405.5114;693.8542;405.5114
integral;405.9187;405.9187
CPXPARAM_MIP_Cuts_Covers 0
Instance6
Objective;Best_Integer;Best_Bound
405.5114;648.3061;405.5114
405.5114;570.3280;405.5114
CPXPARAM_MIP_Cuts_Covers 0
Instance7
Objective;Best_Integer;Best_Bound
integral;425.0746;425.0746
CPXPARAM_MIP_Cuts_Covers 0
Instance8
Objective;Best_Integer;Best_Bound
484.8467;648.8417;484.8467
484.8467;648.8417;484.8467
CPXPARAM_MIP_Cuts_Covers 0
Instance9
Objective;Best_Integer;Best_Bound
integral;484.8467;484.8467
CPXPARAM_MIP_Cuts_Covers 0
Instance10
Objective;Best_Integer;Best_Bound
498.6071;845.6683;498.6071
498.6071;631.7880;498.6071
CPXPARAM_MIP_Cuts_Covers 0
Instance11
Objective;Best_Integer;Best_Bound
integral;561.1585;561.1585
CPXPARAM_MIP_Cuts_Covers 0
Instance12
Objective;Best_Integer;Best_Bound
386.2283;534.4657;386.2283
386.2283;527.9269;386.2283
CPXPARAM_MIP_Cuts_Covers 0
Instance13
Objective;Best_Integer;Best_Bound
integral;389.1110;389.1110
CPXPARAM_MIP_Cuts_Covers 0
Instance14
Objective;Best_Integer;Best_Bound
386.2283;534.4657;386.2283
386.2283;527.9269;386.2283
CPXPARAM_MIP_Cuts_Covers 0
Instance15
Objective;Best_Integer;Best_Bound
integral;410.1756;410.1756
CPXPARAM_MIP_Cuts_Covers 0
Instance16
Objective;Best_Integer;Best_Bound
417.5617;482.5302;417.5617
417.5617;465.0575;417.5617
CPXPARAM_MIP_Cuts_Covers 0
Instance17
Objective;Best_Integer;Best_Bound
integral;425.9937;425.9937
CPXPARAM_MIP_Cuts_Covers 0
Instance18
Objective;Best_Integer;Best_Bound
423.0032;673.4267;423.0032
423.0032;475.1344;423.0032
CPXPARAM_MIP_Cuts_Covers 0
Instance19
Objective;Best_Integer;Best_Bound
integral;446.2379;446.2379
CPXPARAM_MIP_Cuts_Covers 0
Instance20
Objective;Best_Integer;Best_Bound
283.8374;499.7053;283.8374
283.8374;331.4363;283.8374
CPXPARAM_MIP_Cuts_Covers 0
Instance21
Objective;Best_Integer;Best_Bound
integral;283.8374;283.8374
CPXPARAM_MIP_Cuts_Covers 0
Instance22
Objective;Best_Integer;Best_Bound
286.9244;502.7786;286.9244
286.9244;315.4732;286.9244
CPXPARAM_MIP_Cuts_Covers 0
Instance23
Objective;Best_Integer;Best_Bound
integral;293.4740;293.4740
CPXPARAM_MIP_Cuts_Covers 0
Instance24
Objective;Best_Integer;Best_Bound
363.2658;473.7492;363.2658
363.2658;396.1684;363.2658
CPXPARAM_MIP_Cuts_Covers 0
Instance25
Objective;Best_Integer;Best_Bound
integral;372.4575;372.4575
CPXPARAM_MIP_Cuts_Covers 0
Instance26
Objective;Best_Integer;Best_Bound
372.1627;476.4585;372.1627
372.1627;476.4585;372.1627
CPXPARAM_MIP_Cuts_Covers 0
Instance27
Objective;Best_Integer;Best_Bound
integral;385.0255;385.0255
CPXPARAM_MIP_Cuts_Covers 0
Instance28
Objective;Best_Integer;Best_Bound
601.4591;872.5219;601.4591
601.4591;728.9614;601.4591
CPXPARAM_MIP_Cuts_Covers 0
Instance29
Objective;Best_Integer;Best_Bound
integral;596.9704;596.9704
CPXPARAM_MIP_Cuts_Covers 0
Instance30
Objective;Best_Integer;Best_Bound
601.4591;877.2624;601.4591
601.4591;694.9196;601.4591
CPXPARAM_MIP_Cuts_Covers 0
Instance31
Objective;Best_Integer;Best_Bound
integral;601.4591;601.4591
CPXPARAM_MIP_Cuts_Covers 0
Instance32
Objective;Best_Integer;Best_Bound
285.1772;538.6067;285.1772
285.1772;456.5074;285.1772
CPXPARAM_MIP_Cuts_Covers 0
Instance33
Objective;Best_Integer;Best_Bound
304.9439;671.2898;304.9439
integral;304.9870;304.9439
304.9870;304.9870;304.9870
CPXPARAM_MIP_Cuts_Covers 0
Instance34
Objective;Best_Integer;Best_Bound
304.9439;548.6165;304.9439
304.9439;441.6085;304.9439
CPXPARAM_MIP_Cuts_Covers 0
Instance35
Objective;Best_Integer;Best_Bound
integral;363.5184;363.5184
CPXPARAM_MIP_Cuts_Covers 0
Instance36
Objective;Best_Integer;Best_Bound
431.0120;643.3001;431.0120
431.0120;513.0512;431.0120
CPXPARAM_MIP_Cuts_Covers 0
Instance37
Objective;Best_Integer;Best_Bound
integral;431.0120;431.0120
CPXPARAM_MIP_Cuts_Covers 0
Instance38
Objective;Best_Integer;Best_Bound
431.2487;644.4799;431.2487
431.2487;529.8874;431.2487
CPXPARAM_MIP_Cuts_Covers 0
Instance39
Objective;Best_Integer;Best_Bound
cutoff;451.8439;34
cutoff;451.8439;34
CPXPARAM_MIP_Cuts_Covers 0
